proyfinal/src/viki/013/experimentInOfficeAgust.take6.output/578e4fe6-c50e-4bf1-8819-138bb3c15e1e.als.out
Reading from standard input... Use '--help' for help.
============================[ Problem Statistics ]=============================
|                                                                             |
|  Number of variables:         87638                                         |
|  Number of clauses:          161767                                         |
|  Parse time:                   0.04 s                                       |
|                                                                             |
============================[ Search Statistics ]==============================
| Conflicts |          ORIGINAL         |          LEARNT          | Progress |
|           |    Vars  Clauses Literals |    Limit  Clauses Lit/Cl |          |
===============================================================================
|       100 |   62684   106247   265547 |    38957      100      9 | 28.474 % |
|       250 |   48781    67416   169875 |    42852      233     30 | 44.338 % |
|       475 |   48633    66712   168139 |    47138      454     66 | 44.507 % |
|       812 |   48633    66712   168139 |    51852      791     65 | 44.507 % |
|      1318 |   48541    66385   167282 |    57037     1288     57 | 44.612 % |
|      2077 |   48452    65957   166246 |    62741     1914     51 | 44.713 % |
|      3216 |   48056    64431   162636 |    69015     3036     52 | 45.165 % |
|      4924 |   47441    61942   156692 |    75916     4519     50 | 45.867 % |
|      7486 |   46796    59612   151175 |    83508     5532     44 | 46.603 % |
===============================================================================
restarts              : 46
conflicts             : 10480          (8534 /sec)
decisions             : 34439          (0.00 % random) (28045 /sec)
propagations          : 14837673       (12082874 /sec)
conflict literals     : 405411         (42.74 % deleted)
Memory used           : 32.50 MB
CPU time              : 1.22799 s

UNSATISFIABLE
